20 79
1 6 63
1 11 28
1 12 18
1 17 91
1 18 19
2 5 13
2 10 62
2 12 34
2 14 2
2 18 43
3 4 29
3 7 58
3 11 63
3 14 38
3 16 43
3 17 27
3 18 71
3 19 37
4 2 50
4 5 31
4 19 88
5 1 36
5 2 31
5 4 54
5 6 36
5 8 85
5 14 81
6 12 82
6 13 78
6 18 74
7 5 3
7 14 55
8 5 60
8 7 13
8 14 22
8 20 33
9 2 57
9 7 66
9 14 89
9 20 36
10 5 37
10 7 82
10 15 25
11 2 54
11 5 54
11 14 63
11 15 78
11 18 42
12 4 82
12 16 79
12 20 84
13 16 84
14 6 41
14 8 6
14 9 84
14 10 92
14 15 23
14 18 38
15 13 38
15 17 17
16 5 94
16 14 62
17 2 55
17 8 49
17 20 67
18 3 75
18 10 100
18 19 58
19 2 51
19 13 20
19 15 63
19 17 52
19 20 64
20 2 64
20 4 79
20 11 19
20 13 20
20 15 38
20 19 6
